c DCNF-Autarky [version 0.0.1]. 
c Copyright (c) 2018-2019 Swansea University. 
c 
c Input QBF/DQBF path: Castellini18//toilet_c_10_05.5.qdimacs
c Output SAT Translation Path: /tmp/toilet_c_10_05.5.qdimacs-dcnfAutarky.dimacs
c Input Clause Count (tautology free): 3240
c
c Performing E1-Autarky iteration.
c Remaining clauses count after E-Reduction: 2865
c
c Performing A1-Autarky iteration.
c Running Lingeling ... 
c
c Remaining clauses count after A-Reduction: 2865
c
c Input Parameter (command line, file): 
c input filename   Castellini18//toilet_c_10_05.5.qdimacs
c output filename  /tmp/toilet_c_10_05.5.qdimacs-dcnfAutarky.dimacs
c autarky level    1
c conformity level 0
c encoding type    2
c no.of var        404
c no.of clauses    3240
c no.of taut cls   0
c 
c Output Parameters: 
c remaining no.of clauses  2865
c
c filename pn pc autarky ntaut rpa rpe rpcdiff result
c "Castellini18//toilet_c_10_05.5.qdimacs" 404 3240 "E1+A1" 0 4 345 375 "RED" 
p cnf 404 2865
e 91 92 93 94 95 96 97 98 99 100 101 102 103 104 105 106 107 108 109 110 111 112 113 114 115 116 117 118 119 120 121 122 123 124 125 126 127 128 129 130 131 132 133 134 135 136 137 138 139 140 141 142 143 144 145 146 147 148 149 150 151 152 153 154 155 156 157 158 159 160 161 162 163 164 165 166 167 168 169 170 171 172 173 174 175 176 177 178 179 180 181 182 183 184 185 186 187 188 189 190 191 192 193 194 195 196 197 198 199 200 201 202 203 204 205 206 207 208 209 210 211 212 213 214 215 216 217 218 219 220 221 222 223 224 225 226 227 228 229 230 231 232 233 234 235 236 237 238 239 240 241 242 243 244 245 246 247 248 249 250 251 252 253 254 255 256 257 258 259 260 261 262 263 264 265 266 267 268 269 270 271 272 273 274 275 276 277 278 279 280 281 282 283 284 285 286 287 288 289 290 291 292 293 294 295 296 297 298 299 300 301 302 303 304 305 306 307 308 309 310 311 312 313 314 315 316 317 318 319 320 321 322 323 324 325 326 327 328 329 330 331 332 333 334 335 336 337 338 339 340 341 342 343 344 345 346 347 348 349 350 351 352 353 354 355 356 357 358 359 360 361 362 363 364 365 0
a 378 377 376 379 0
e 1 2 3 4 5 6 7 8 9 10 11 12 13 14 15 16 17 18 19 20 21 22 23 24 25 26 27 28 29 30 31 32 33 34 35 36 37 38 39 40 41 42 43 44 45 46 47 48 49 50 51 52 53 54 55 56 57 58 59 60 61 62 63 64 65 66 67 68 69 70 71 72 73 74 75 76 77 78 79 80 81 82 83 84 85 86 87 88 89 90 366 367 368 369 370 371 372 373 374 375 380 381 382 383 384 385 386 387 388 389 390 391 392 393 394 395 396 397 398 399 400 401 402 403 404 0
-378 -380 376 377 379 0
-378 -381 376 377 379 0
-378 -382 376 377 379 0
-378 -383 376 377 379 0
-378 -384 376 377 379 0
-378 -385 376 377 379 0
-378 -386 376 377 379 0
-378 376 377 379 387 0
-378 -388 376 377 379 0
-378 -389 376 377 379 0
-376 -377 -379 -380 378 0
-376 -377 -379 -381 378 0
-376 -377 -379 -382 378 0
-376 -377 -379 -383 378 0
-376 -377 -379 -384 378 0
-376 -377 -379 -385 378 0
-376 -377 -379 378 386 0
-376 -377 -379 -387 378 0
-376 -377 -379 -388 378 0
-376 -377 -379 -389 378 0
-376 -377 -380 378 379 0
-376 -377 -381 378 379 0
-376 -377 -382 378 379 0
-376 -377 -383 378 379 0
-376 -377 -384 378 379 0
-376 -377 378 379 385 0
-376 -377 -386 378 379 0
-376 -377 -387 378 379 0
-376 -377 -388 378 379 0
-376 -377 -389 378 379 0
-377 -379 -380 376 378 0
-377 -379 -381 376 378 0
-377 -379 -382 376 378 0
-377 -379 -383 376 378 0
-377 -379 376 378 384 0
-377 -379 -385 376 378 0
-377 -379 -386 376 378 0
-377 -379 -387 376 378 0
-377 -379 -388 376 378 0
-377 -379 -389 376 378 0
-377 -380 376 378 379 0
-377 -381 376 378 379 0
-377 -382 376 378 379 0
-377 376 378 379 383 0
-377 -384 376 378 379 0
-377 -385 376 378 379 0
-377 -386 376 378 379 0
-377 -387 376 378 379 0
-377 -388 376 378 379 0
-377 -389 376 378 379 0
-376 -379 -380 377 378 0
-376 -379 -381 377 378 0
-376 -379 377 378 382 0
-376 -379 -383 377 378 0
-376 -379 -384 377 378 0
-376 -379 -385 377 378 0
-376 -379 -386 377 378 0
-376 -379 -387 377 378 0
-376 -379 -388 377 378 0
-376 -379 -389 377 378 0
-376 -380 377 378 379 0
-376 377 378 379 381 0
-376 -382 377 378 379 0
-376 -383 377 378 379 0
-376 -384 377 378 379 0
-376 -385 377 378 379 0
-376 -386 377 378 379 0
-376 -387 377 378 379 0
-376 -388 377 378 379 0
-376 -389 377 378 379 0
-379 376 377 378 380 0
-379 -381 376 377 378 0
-379 -382 376 377 378 0
-379 -383 376 377 378 0
-379 -384 376 377 378 0
-379 -385 376 377 378 0
-379 -386 376 377 378 0
-379 -387 376 377 378 0
-379 -388 376 377 378 0
-379 -389 376 377 378 0
-380 376 377 378 379 0
-381 376 377 378 379 0
-382 376 377 378 379 0
-383 376 377 378 379 0
-384 376 377 378 379 0
-385 376 377 378 379 0
-386 376 377 378 379 0
-387 376 377 378 379 0
-388 376 377 378 379 0
376 377 378 379 389 0
-378 -379 -380 376 377 0
-378 -379 -381 376 377 0
-378 -379 -382 376 377 0
-378 -379 -383 376 377 0
-378 -379 -384 376 377 0
-378 -379 -385 376 377 0
-378 -379 -386 376 377 0
-378 -379 -387 376 377 0
-378 -379 376 377 388 0
-378 -379 -389 376 377 0
-390 0
-391 0
-392 0
-393 0
-394 0
-395 0
-396 0
-397 0
-398 0
-399 0
-400 0
-401 0
-402 0
-403 0
-404 0
-91 -404 0
-91 -394 0
-5 -92 0
-1 -92 0
-6 -93 0
-2 -93 0
-7 -94 0
-3 -94 0
-96 -395 0
-96 -404 0
-12 -97 0
-5 -97 0
-13 -98 0
-6 -98 0
-14 -99 0
-7 -99 0
-101 -396 0
-101 -404 0
-19 -102 0
-5 -102 0
-20 -103 0
-6 -103 0
-21 -104 0
-7 -104 0
-106 -397 0
-106 -404 0
-26 -107 0
-5 -107 0
-27 -108 0
-6 -108 0
-28 -109 0
-7 -109 0
-111 -398 0
-111 -404 0
-33 -112 0
-5 -112 0
-34 -113 0
-6 -113 0
-35 -114 0
-7 -114 0
-116 -399 0
-116 -404 0
-40 -117 0
-5 -117 0
-41 -118 0
-6 -118 0
-42 -119 0
-7 -119 0
-121 -400 0
-121 -404 0
-47 -122 0
-5 -122 0
-48 -123 0
-6 -123 0
-49 -124 0
-7 -124 0
-126 -401 0
-126 -404 0
-54 -127 0
-5 -127 0
-55 -128 0
-6 -128 0
-56 -129 0
-7 -129 0
-131 -402 0
-131 -404 0
-61 -132 0
-5 -132 0
-62 -133 0
-6 -133 0
-63 -134 0
-7 -134 0
-136 -403 0
-136 -404 0
-68 -138 0
-5 -138 0
-69 -140 0
-6 -140 0
-70 -142 0
-7 -142 0
-146 -390 0
-146 -394 0
-75 -147 0
-1 -147 0
-76 -148 0
-2 -148 0
-77 -149 0
-3 -149 0
-151 -390 0
-151 -395 0
-75 -152 0
-12 -152 0
-76 -153 0
-13 -153 0
-77 -154 0
-14 -154 0
-156 -390 0
-156 -396 0
-75 -157 0
-19 -157 0
-76 -158 0
-20 -158 0
-77 -159 0
-21 -159 0
-161 -390 0
-161 -397 0
-75 -162 0
-26 -162 0
-76 -163 0
-27 -163 0
-77 -164 0
-28 -164 0
-166 -390 0
-166 -398 0
-75 -167 0
-33 -167 0
-76 -168 0
-34 -168 0
-77 -169 0
-35 -169 0
-171 -390 0
-171 -399 0
-75 -172 0
-40 -172 0
-76 -173 0
-41 -173 0
-77 -174 0
-42 -174 0
-176 -390 0
-176 -400 0
-75 -177 0
-47 -177 0
-76 -178 0
-48 -178 0
-77 -179 0
-49 -179 0
-181 -390 0
-181 -401 0
-75 -182 0
-54 -182 0
-76 -183 0
-55 -183 0
-77 -184 0
-56 -184 0
-186 -390 0
-186 -402 0
-75 -187 0
-61 -187 0
-76 -188 0
-62 -188 0
-77 -189 0
-63 -189 0
-191 -390 0
-191 -403 0
-75 -193 0
-68 -193 0
-76 -195 0
-69 -195 0
-77 -197 0
-70 -197 0
-201 -391 0
-201 -394 0
-79 -202 0
-1 -202 0
-80 -203 0
-2 -203 0
-81 -204 0
-3 -204 0
-206 -391 0
-206 -395 0
-79 -207 0
-12 -207 0
-80 -208 0
-13 -208 0
-81 -209 0
-14 -209 0
-211 -391 0
-211 -396 0
-79 -212 0
-19 -212 0
-80 -213 0
-20 -213 0
-81 -214 0
-21 -214 0
-216 -391 0
-216 -397 0
-79 -217 0
-26 -217 0
-80 -218 0
-27 -218 0
-81 -219 0
-28 -219 0
-221 -391 0
-221 -398 0
-79 -222 0
-33 -222 0
-80 -223 0
-34 -223 0
-81 -224 0
-35 -224 0
-226 -391 0
-226 -399 0
-79 -227 0
-40 -227 0
-80 -228 0
-41 -228 0
-81 -229 0
-42 -229 0
-231 -391 0
-231 -400 0
-79 -232 0
-47 -232 0
-80 -233 0
-48 -233 0
-81 -234 0
-49 -234 0
-236 -391 0
-236 -401 0
-79 -237 0
-54 -237 0
-80 -238 0
-55 -238 0
-81 -239 0
-56 -239 0
-241 -391 0
-241 -402 0
-79 -242 0
-61 -242 0
-80 -243 0
-62 -243 0
-81 -244 0
-63 -244 0
-246 -391 0
-246 -403 0
-79 -248 0
-68 -248 0
-80 -250 0
-69 -250 0
-81 -252 0
-70 -252 0
-256 -392 0
-256 -394 0
-83 -257 0
-1 -257 0
-84 -258 0
-2 -258 0
-85 -259 0
-3 -259 0
-261 -392 0
-261 -395 0
-83 -262 0
-12 -262 0
-84 -263 0
-13 -263 0
-85 -264 0
-14 -264 0
-266 -392 0
-266 -396 0
-83 -267 0
-19 -267 0
-84 -268 0
-20 -268 0
-85 -269 0
-21 -269 0
-271 -392 0
-271 -397 0
-83 -272 0
-26 -272 0
-84 -273 0
-27 -273 0
-85 -274 0
-28 -274 0
-276 -392 0
-276 -398 0
-83 -277 0
-33 -277 0
-84 -278 0
-34 -278 0
-85 -279 0
-35 -279 0
-281 -392 0
-281 -399 0
-83 -282 0
-40 -282 0
-84 -283 0
-41 -283 0
-85 -284 0
-42 -284 0
-286 -392 0
-286 -400 0
-83 -287 0
-47 -287 0
-84 -288 0
-48 -288 0
-85 -289 0
-49 -289 0
-291 -392 0
-291 -401 0
-83 -292 0
-54 -292 0
-84 -293 0
-55 -293 0
-85 -294 0
-56 -294 0
-296 -392 0
-296 -402 0
-83 -297 0
-61 -297 0
-84 -298 0
-62 -298 0
-85 -299 0
-63 -299 0
-301 -392 0
-301 -403 0
-83 -303 0
-68 -303 0
-84 -305 0
-69 -305 0
-85 -307 0
-70 -307 0
-311 -393 0
-311 -394 0
-87 -312 0
-1 -312 0
-88 -313 0
-2 -313 0
-89 -314 0
-3 -314 0
-316 -393 0
-316 -395 0
-87 -317 0
-12 -317 0
-88 -318 0
-13 -318 0
-89 -319 0
-14 -319 0
-321 -393 0
-321 -396 0
-87 -322 0
-19 -322 0
-88 -323 0
-20 -323 0
-89 -324 0
-21 -324 0
-326 -393 0
-326 -397 0
-87 -327 0
-26 -327 0
-88 -328 0
-27 -328 0
-89 -329 0
-28 -329 0
-331 -393 0
-331 -398 0
-87 -332 0
-33 -332 0
-88 -333 0
-34 -333 0
-89 -334 0
-35 -334 0
-336 -393 0
-336 -399 0
-87 -337 0
-40 -337 0
-88 -338 0
-41 -338 0
-89 -339 0
-42 -339 0
-341 -393 0
-341 -400 0
-87 -342 0
-47 -342 0
-88 -343 0
-48 -343 0
-89 -344 0
-49 -344 0
-346 -393 0
-346 -401 0
-87 -347 0
-54 -347 0
-88 -348 0
-55 -348 0
-89 -349 0
-56 -349 0
-351 -393 0
-351 -402 0
-87 -352 0
-61 -352 0
-88 -353 0
-62 -353 0
-89 -354 0
-63 -354 0
-356 -393 0
-356 -403 0
-87 -358 0
-68 -358 0
-88 -360 0
-69 -360 0
-89 -362 0
-70 -362 0
-137 404 0
-139 5 0
-141 6 0
-143 7 0
-192 390 0
-194 75 0
-196 76 0
-198 77 0
-247 391 0
-249 79 0
-251 80 0
-253 81 0
-302 392 0
-304 83 0
-306 84 0
-308 85 0
-357 393 0
-359 87 0
-361 88 0
-363 89 0
-91 5 0
-9 -91 0
-91 1 0
-92 6 0
-10 -92 0
-92 2 0
-93 7 0
-11 -93 0
-93 3 0
-94 8 0
-94 -366 0
-94 4 0
-96 12 0
-16 -96 0
-96 5 0
-97 13 0
-17 -97 0
-97 6 0
-98 14 0
-18 -98 0
-98 7 0
-99 15 0
-99 -367 0
-99 8 0
-101 19 0
-23 -101 0
-101 5 0
-102 20 0
-24 -102 0
-102 6 0
-103 21 0
-25 -103 0
-103 7 0
-104 22 0
-104 -368 0
-104 8 0
-106 26 0
-30 -106 0
-106 5 0
-107 27 0
-31 -107 0
-107 6 0
-108 28 0
-32 -108 0
-108 7 0
-109 29 0
-109 -369 0
-109 8 0
-111 33 0
-37 -111 0
-111 5 0
-112 34 0
-38 -112 0
-112 6 0
-113 35 0
-39 -113 0
-113 7 0
-114 36 0
-114 -370 0
-114 8 0
-116 40 0
-44 -116 0
-116 5 0
-117 41 0
-45 -117 0
-117 6 0
-118 42 0
-46 -118 0
-118 7 0
-119 43 0
-119 -371 0
-119 8 0
-121 47 0
-51 -121 0
-121 5 0
-122 48 0
-52 -122 0
-122 6 0
-123 49 0
-53 -123 0
-123 7 0
-124 50 0
-124 -372 0
-124 8 0
-126 54 0
-58 -126 0
-126 5 0
-127 55 0
-59 -127 0
-127 6 0
-128 56 0
-60 -128 0
-128 7 0
-129 57 0
-129 -373 0
-129 8 0
-131 61 0
-65 -131 0
-131 5 0
-132 62 0
-66 -132 0
-132 6 0
-133 63 0
-67 -133 0
-133 7 0
-134 64 0
-134 -374 0
-134 8 0
-136 68 0
-72 -136 0
-136 5 0
-138 69 0
-73 -138 0
-138 6 0
-140 70 0
-74 -140 0
-140 7 0
-142 71 0
-142 -375 0
-142 8 0
-146 75 0
-9 -146 0
-146 1 0
-147 76 0
-10 -147 0
-147 2 0
-148 77 0
-11 -148 0
-148 3 0
-149 78 0
-149 -366 0
-149 4 0
-151 75 0
-16 -151 0
-151 12 0
-152 76 0
-17 -152 0
-152 13 0
-153 77 0
-18 -153 0
-153 14 0
-154 78 0
-154 -367 0
-154 15 0
-156 75 0
-23 -156 0
-156 19 0
-157 76 0
-24 -157 0
-157 20 0
-158 77 0
-25 -158 0
-158 21 0
-159 78 0
-159 -368 0
-159 22 0
-161 75 0
-30 -161 0
-161 26 0
-162 76 0
-31 -162 0
-162 27 0
-163 77 0
-32 -163 0
-163 28 0
-164 78 0
-164 -369 0
-164 29 0
-166 75 0
-37 -166 0
-166 33 0
-167 76 0
-38 -167 0
-167 34 0
-168 77 0
-39 -168 0
-168 35 0
-169 78 0
-169 -370 0
-169 36 0
-171 75 0
-44 -171 0
-171 40 0
-172 76 0
-45 -172 0
-172 41 0
-173 77 0
-46 -173 0
-173 42 0
-174 78 0
-174 -371 0
-174 43 0
-176 75 0
-51 -176 0
-176 47 0
-177 76 0
-52 -177 0
-177 48 0
-178 77 0
-53 -178 0
-178 49 0
-179 78 0
-179 -372 0
-179 50 0
-181 75 0
-58 -181 0
-181 54 0
-182 76 0
-59 -182 0
-182 55 0
-183 77 0
-60 -183 0
-183 56 0
-184 78 0
-184 -373 0
-184 57 0
-186 75 0
-65 -186 0
-186 61 0
-187 76 0
-66 -187 0
-187 62 0
-188 77 0
-67 -188 0
-188 63 0
-189 78 0
-189 -374 0
-189 64 0
-191 75 0
-72 -191 0
-191 68 0
-193 76 0
-73 -193 0
-193 69 0
-195 77 0
-74 -195 0
-195 70 0
-197 78 0
-197 -375 0
-197 71 0
-201 79 0
-9 -201 0
-201 1 0
-202 80 0
-10 -202 0
-202 2 0
-203 81 0
-11 -203 0
-203 3 0
-204 82 0
-204 -366 0
-204 4 0
-206 79 0
-16 -206 0
-206 12 0
-207 80 0
-17 -207 0
-207 13 0
-208 81 0
-18 -208 0
-208 14 0
-209 82 0
-209 -367 0
-209 15 0
-211 79 0
-23 -211 0
-211 19 0
-212 80 0
-24 -212 0
-212 20 0
-213 81 0
-25 -213 0
-213 21 0
-214 82 0
-214 -368 0
-214 22 0
-216 79 0
-30 -216 0
-216 26 0
-217 80 0
-31 -217 0
-217 27 0
-218 81 0
-32 -218 0
-218 28 0
-219 82 0
-219 -369 0
-219 29 0
-221 79 0
-37 -221 0
-221 33 0
-222 80 0
-38 -222 0
-222 34 0
-223 81 0
-39 -223 0
-223 35 0
-224 82 0
-224 -370 0
-224 36 0
-226 79 0
-44 -226 0
-226 40 0
-227 80 0
-45 -227 0
-227 41 0
-228 81 0
-46 -228 0
-228 42 0
-229 82 0
-229 -371 0
-229 43 0
-231 79 0
-51 -231 0
-231 47 0
-232 80 0
-52 -232 0
-232 48 0
-233 81 0
-53 -233 0
-233 49 0
-234 82 0
-234 -372 0
-234 50 0
-236 79 0
-58 -236 0
-236 54 0
-237 80 0
-59 -237 0
-237 55 0
-238 81 0
-60 -238 0
-238 56 0
-239 82 0
-239 -373 0
-239 57 0
-241 79 0
-65 -241 0
-241 61 0
-242 80 0
-66 -242 0
-242 62 0
-243 81 0
-67 -243 0
-243 63 0
-244 82 0
-244 -374 0
-244 64 0
-246 79 0
-72 -246 0
-246 68 0
-248 80 0
-73 -248 0
-248 69 0
-250 81 0
-74 -250 0
-250 70 0
-252 82 0
-252 -375 0
-252 71 0
-256 83 0
-9 -256 0
-256 1 0
-257 84 0
-10 -257 0
-257 2 0
-258 85 0
-11 -258 0
-258 3 0
-259 86 0
-259 -366 0
-259 4 0
-261 83 0
-16 -261 0
-261 12 0
-262 84 0
-17 -262 0
-262 13 0
-263 85 0
-18 -263 0
-263 14 0
-264 86 0
-264 -367 0
-264 15 0
-266 83 0
-23 -266 0
-266 19 0
-267 84 0
-24 -267 0
-267 20 0
-268 85 0
-25 -268 0
-268 21 0
-269 86 0
-269 -368 0
-269 22 0
-271 83 0
-30 -271 0
-271 26 0
-272 84 0
-31 -272 0
-272 27 0
-273 85 0
-32 -273 0
-273 28 0
-274 86 0
-274 -369 0
-274 29 0
-276 83 0
-37 -276 0
-276 33 0
-277 84 0
-38 -277 0
-277 34 0
-278 85 0
-39 -278 0
-278 35 0
-279 86 0
-279 -370 0
-279 36 0
-281 83 0
-44 -281 0
-281 40 0
-282 84 0
-45 -282 0
-282 41 0
-283 85 0
-46 -283 0
-283 42 0
-284 86 0
-284 -371 0
-284 43 0
-286 83 0
-51 -286 0
-286 47 0
-287 84 0
-52 -287 0
-287 48 0
-288 85 0
-53 -288 0
-288 49 0
-289 86 0
-289 -372 0
-289 50 0
-291 83 0
-58 -291 0
-291 54 0
-292 84 0
-59 -292 0
-292 55 0
-293 85 0
-60 -293 0
-293 56 0
-294 86 0
-294 -373 0
-294 57 0
-296 83 0
-65 -296 0
-296 61 0
-297 84 0
-66 -297 0
-297 62 0
-298 85 0
-67 -298 0
-298 63 0
-299 86 0
-299 -374 0
-299 64 0
-301 83 0
-72 -301 0
-301 68 0
-303 84 0
-73 -303 0
-303 69 0
-305 85 0
-74 -305 0
-305 70 0
-307 86 0
-307 -375 0
-307 71 0
-311 87 0
-9 -311 0
-311 1 0
-312 88 0
-10 -312 0
-312 2 0
-313 89 0
-11 -313 0
-313 3 0
-314 90 0
-314 -366 0
-314 4 0
-316 87 0
-16 -316 0
-316 12 0
-317 88 0
-17 -317 0
-317 13 0
-318 89 0
-18 -318 0
-318 14 0
-319 90 0
-319 -367 0
-319 15 0
-321 87 0
-23 -321 0
-321 19 0
-322 88 0
-24 -322 0
-322 20 0
-323 89 0
-25 -323 0
-323 21 0
-324 90 0
-324 -368 0
-324 22 0
-326 87 0
-30 -326 0
-326 26 0
-327 88 0
-31 -327 0
-327 27 0
-328 89 0
-32 -328 0
-328 28 0
-329 90 0
-329 -369 0
-329 29 0
-331 87 0
-37 -331 0
-331 33 0
-332 88 0
-38 -332 0
-332 34 0
-333 89 0
-39 -333 0
-333 35 0
-334 90 0
-334 -370 0
-334 36 0
-336 87 0
-44 -336 0
-336 40 0
-337 88 0
-45 -337 0
-337 41 0
-338 89 0
-46 -338 0
-338 42 0
-339 90 0
-339 -371 0
-339 43 0
-341 87 0
-51 -341 0
-341 47 0
-342 88 0
-52 -342 0
-342 48 0
-343 89 0
-53 -343 0
-343 49 0
-344 90 0
-344 -372 0
-344 50 0
-346 87 0
-58 -346 0
-346 54 0
-347 88 0
-59 -347 0
-347 55 0
-348 89 0
-60 -348 0
-348 56 0
-349 90 0
-349 -373 0
-349 57 0
-351 87 0
-65 -351 0
-351 61 0
-352 88 0
-66 -352 0
-352 62 0
-353 89 0
-67 -353 0
-353 63 0
-354 90 0
-354 -374 0
-354 64 0
-356 87 0
-72 -356 0
-356 68 0
-358 88 0
-73 -358 0
-358 69 0
-360 89 0
-74 -360 0
-360 70 0
-362 90 0
-362 -375 0
-362 71 0
-5 -137 0
-6 -139 0
-7 -141 0
-8 -143 0
-75 -192 0
-76 -194 0
-77 -196 0
-78 -198 0
-79 -247 0
-80 -249 0
-81 -251 0
-82 -253 0
-83 -302 0
-84 -304 0
-85 -306 0
-86 -308 0
-87 -357 0
-88 -359 0
-89 -361 0
-90 -363 0
-1 91 146 201 256 311 394 0
-2 1 92 147 202 257 312 0
-3 2 93 148 203 258 313 0
-4 3 94 149 204 259 314 0
-394 1 0
-1 2 0
-2 3 0
-3 4 0
-5 91 96 101 106 111 116 121 126 131 136 404 0
-6 5 92 97 102 107 112 117 122 127 132 138 0
-7 6 93 98 103 108 113 118 123 128 133 140 0
-8 7 94 99 104 109 114 119 124 129 134 142 0
-404 5 137 0
-5 6 139 0
-6 7 141 0
-7 8 143 0
-9 389 0
-10 9 0
-11 10 0
-366 11 0
-389 9 91 146 201 256 311 0
-9 10 92 147 202 257 312 0
-10 11 93 148 203 258 313 0
-11 94 149 204 259 314 366 0
-12 96 151 206 261 316 395 0
-13 12 97 152 207 262 317 0
-14 13 98 153 208 263 318 0
-15 14 99 154 209 264 319 0
-395 12 0
-12 13 0
-13 14 0
-14 15 0
-16 380 0
-17 16 0
-18 17 0
-367 18 0
-380 16 96 151 206 261 316 0
-16 17 97 152 207 262 317 0
-17 18 98 153 208 263 318 0
-18 99 154 209 264 319 367 0
-19 101 156 211 266 321 396 0
-20 19 102 157 212 267 322 0
-21 20 103 158 213 268 323 0
-22 21 104 159 214 269 324 0
-396 19 0
-19 20 0
-20 21 0
-21 22 0
-23 381 0
-24 23 0
-25 24 0
-368 25 0
-381 23 101 156 211 266 321 0
-23 24 102 157 212 267 322 0
-24 25 103 158 213 268 323 0
-25 104 159 214 269 324 368 0
-26 106 161 216 271 326 397 0
-27 26 107 162 217 272 327 0
-28 27 108 163 218 273 328 0
-29 28 109 164 219 274 329 0
-397 26 0
-26 27 0
-27 28 0
-28 29 0
-30 382 0
-31 30 0
-32 31 0
-369 32 0
-382 30 106 161 216 271 326 0
-30 31 107 162 217 272 327 0
-31 32 108 163 218 273 328 0
-32 109 164 219 274 329 369 0
-33 111 166 221 276 331 398 0
-34 33 112 167 222 277 332 0
-35 34 113 168 223 278 333 0
-36 35 114 169 224 279 334 0
-398 33 0
-33 34 0
-34 35 0
-35 36 0
-37 383 0
-38 37 0
-39 38 0
-370 39 0
-383 37 111 166 221 276 331 0
-37 38 112 167 222 277 332 0
-38 39 113 168 223 278 333 0
-39 114 169 224 279 334 370 0
-40 116 171 226 281 336 399 0
-41 40 117 172 227 282 337 0
-42 41 118 173 228 283 338 0
-43 42 119 174 229 284 339 0
-399 40 0
-40 41 0
-41 42 0
-42 43 0
-44 384 0
-45 44 0
-46 45 0
-371 46 0
-384 44 116 171 226 281 336 0
-44 45 117 172 227 282 337 0
-45 46 118 173 228 283 338 0
-46 119 174 229 284 339 371 0
-47 121 176 231 286 341 400 0
-48 47 122 177 232 287 342 0
-49 48 123 178 233 288 343 0
-50 49 124 179 234 289 344 0
-400 47 0
-47 48 0
-48 49 0
-49 50 0
-51 385 0
-52 51 0
-53 52 0
-372 53 0
-385 51 121 176 231 286 341 0
-51 52 122 177 232 287 342 0
-52 53 123 178 233 288 343 0
-53 124 179 234 289 344 372 0
-54 126 181 236 291 346 401 0
-55 54 127 182 237 292 347 0
-56 55 128 183 238 293 348 0
-57 56 129 184 239 294 349 0
-401 54 0
-54 55 0
-55 56 0
-56 57 0
-58 386 0
-59 58 0
-60 59 0
-373 60 0
-386 58 126 181 236 291 346 0
-58 59 127 182 237 292 347 0
-59 60 128 183 238 293 348 0
-60 129 184 239 294 349 373 0
-61 131 186 241 296 351 402 0
-62 61 132 187 242 297 352 0
-63 62 133 188 243 298 353 0
-64 63 134 189 244 299 354 0
-402 61 0
-61 62 0
-62 63 0
-63 64 0
-65 387 0
-66 65 0
-67 66 0
-374 67 0
-387 65 131 186 241 296 351 0
-65 66 132 187 242 297 352 0
-66 67 133 188 243 298 353 0
-67 134 189 244 299 354 374 0
-68 136 191 246 301 356 403 0
-69 68 138 193 248 303 358 0
-70 69 140 195 250 305 360 0
-71 70 142 197 252 307 362 0
-403 68 0
-68 69 0
-69 70 0
-70 71 0
-72 388 0
-73 72 0
-74 73 0
-375 74 0
-388 72 136 191 246 301 356 0
-72 73 138 193 248 303 358 0
-73 74 140 195 250 305 360 0
-74 142 197 252 307 362 375 0
-75 146 151 156 161 166 171 176 181 186 191 390 0
-76 75 147 152 157 162 167 172 177 182 187 193 0
-77 76 148 153 158 163 168 173 178 183 188 195 0
-78 77 149 154 159 164 169 174 179 184 189 197 0
-390 75 192 0
-75 76 194 0
-76 77 196 0
-77 78 198 0
-79 201 206 211 216 221 226 231 236 241 246 391 0
-80 79 202 207 212 217 222 227 232 237 242 248 0
-81 80 203 208 213 218 223 228 233 238 243 250 0
-82 81 204 209 214 219 224 229 234 239 244 252 0
-391 79 247 0
-79 80 249 0
-80 81 251 0
-81 82 253 0
-83 256 261 266 271 276 281 286 291 296 301 392 0
-84 83 257 262 267 272 277 282 287 292 297 303 0
-85 84 258 263 268 273 278 283 288 293 298 305 0
-86 85 259 264 269 274 279 284 289 294 299 307 0
-392 83 302 0
-83 84 304 0
-84 85 306 0
-85 86 308 0
-87 311 316 321 326 331 336 341 346 351 356 393 0
-88 87 312 317 322 327 332 337 342 347 352 358 0
-89 88 313 318 323 328 333 338 343 348 353 360 0
-90 89 314 319 324 329 334 339 344 349 354 362 0
-393 87 357 0
-87 88 359 0
-88 89 361 0
-89 90 363 0
-91 -96 0
-92 -97 0
-93 -98 0
-94 -99 0
-91 -101 0
-92 -102 0
-93 -103 0
-94 -104 0
-91 -106 0
-92 -107 0
-93 -108 0
-94 -109 0
-91 -111 0
-92 -112 0
-93 -113 0
-94 -114 0
-91 -116 0
-92 -117 0
-93 -118 0
-94 -119 0
-91 -121 0
-92 -122 0
-93 -123 0
-94 -124 0
-91 -126 0
-92 -127 0
-93 -128 0
-94 -129 0
-91 -131 0
-92 -132 0
-93 -133 0
-94 -134 0
-91 -136 0
-92 -138 0
-93 -140 0
-94 -142 0
-91 -146 0
-92 -147 0
-93 -148 0
-94 -149 0
-91 -201 0
-92 -202 0
-93 -203 0
-94 -204 0
-91 -256 0
-92 -257 0
-93 -258 0
-94 -259 0
-91 -311 0
-92 -312 0
-93 -313 0
-94 -314 0
-91 -137 0
-92 -139 0
-93 -141 0
-94 -143 0
-96 -101 0
-97 -102 0
-98 -103 0
-99 -104 0
-96 -106 0
-97 -107 0
-98 -108 0
-99 -109 0
-96 -111 0
-97 -112 0
-98 -113 0
-99 -114 0
-96 -116 0
-97 -117 0
-98 -118 0
-99 -119 0
-96 -121 0
-97 -122 0
-98 -123 0
-99 -124 0
-96 -126 0
-97 -127 0
-98 -128 0
-99 -129 0
-96 -131 0
-97 -132 0
-98 -133 0
-99 -134 0
-96 -136 0
-97 -138 0
-98 -140 0
-99 -142 0
-96 -151 0
-97 -152 0
-98 -153 0
-99 -154 0
-96 -206 0
-97 -207 0
-98 -208 0
-99 -209 0
-96 -261 0
-97 -262 0
-98 -263 0
-99 -264 0
-96 -316 0
-97 -317 0
-98 -318 0
-99 -319 0
-96 -137 0
-97 -139 0
-98 -141 0
-99 -143 0
-101 -106 0
-102 -107 0
-103 -108 0
-104 -109 0
-101 -111 0
-102 -112 0
-103 -113 0
-104 -114 0
-101 -116 0
-102 -117 0
-103 -118 0
-104 -119 0
-101 -121 0
-102 -122 0
-103 -123 0
-104 -124 0
-101 -126 0
-102 -127 0
-103 -128 0
-104 -129 0
-101 -131 0
-102 -132 0
-103 -133 0
-104 -134 0
-101 -136 0
-102 -138 0
-103 -140 0
-104 -142 0
-101 -156 0
-102 -157 0
-103 -158 0
-104 -159 0
-101 -211 0
-102 -212 0
-103 -213 0
-104 -214 0
-101 -266 0
-102 -267 0
-103 -268 0
-104 -269 0
-101 -321 0
-102 -322 0
-103 -323 0
-104 -324 0
-101 -137 0
-102 -139 0
-103 -141 0
-104 -143 0
-106 -111 0
-107 -112 0
-108 -113 0
-109 -114 0
-106 -116 0
-107 -117 0
-108 -118 0
-109 -119 0
-106 -121 0
-107 -122 0
-108 -123 0
-109 -124 0
-106 -126 0
-107 -127 0
-108 -128 0
-109 -129 0
-106 -131 0
-107 -132 0
-108 -133 0
-109 -134 0
-106 -136 0
-107 -138 0
-108 -140 0
-109 -142 0
-106 -161 0
-107 -162 0
-108 -163 0
-109 -164 0
-106 -216 0
-107 -217 0
-108 -218 0
-109 -219 0
-106 -271 0
-107 -272 0
-108 -273 0
-109 -274 0
-106 -326 0
-107 -327 0
-108 -328 0
-109 -329 0
-106 -137 0
-107 -139 0
-108 -141 0
-109 -143 0
-111 -116 0
-112 -117 0
-113 -118 0
-114 -119 0
-111 -121 0
-112 -122 0
-113 -123 0
-114 -124 0
-111 -126 0
-112 -127 0
-113 -128 0
-114 -129 0
-111 -131 0
-112 -132 0
-113 -133 0
-114 -134 0
-111 -136 0
-112 -138 0
-113 -140 0
-114 -142 0
-111 -166 0
-112 -167 0
-113 -168 0
-114 -169 0
-111 -221 0
-112 -222 0
-113 -223 0
-114 -224 0
-111 -276 0
-112 -277 0
-113 -278 0
-114 -279 0
-111 -331 0
-112 -332 0
-113 -333 0
-114 -334 0
-111 -137 0
-112 -139 0
-113 -141 0
-114 -143 0
-116 -121 0
-117 -122 0
-118 -123 0
-119 -124 0
-116 -126 0
-117 -127 0
-118 -128 0
-119 -129 0
-116 -131 0
-117 -132 0
-118 -133 0
-119 -134 0
-116 -136 0
-117 -138 0
-118 -140 0
-119 -142 0
-116 -171 0
-117 -172 0
-118 -173 0
-119 -174 0
-116 -226 0
-117 -227 0
-118 -228 0
-119 -229 0
-116 -281 0
-117 -282 0
-118 -283 0
-119 -284 0
-116 -336 0
-117 -337 0
-118 -338 0
-119 -339 0
-116 -137 0
-117 -139 0
-118 -141 0
-119 -143 0
-121 -126 0
-122 -127 0
-123 -128 0
-124 -129 0
-121 -131 0
-122 -132 0
-123 -133 0
-124 -134 0
-121 -136 0
-122 -138 0
-123 -140 0
-124 -142 0
-121 -176 0
-122 -177 0
-123 -178 0
-124 -179 0
-121 -231 0
-122 -232 0
-123 -233 0
-124 -234 0
-121 -286 0
-122 -287 0
-123 -288 0
-124 -289 0
-121 -341 0
-122 -342 0
-123 -343 0
-124 -344 0
-121 -137 0
-122 -139 0
-123 -141 0
-124 -143 0
-126 -131 0
-127 -132 0
-128 -133 0
-129 -134 0
-126 -136 0
-127 -138 0
-128 -140 0
-129 -142 0
-126 -181 0
-127 -182 0
-128 -183 0
-129 -184 0
-126 -236 0
-127 -237 0
-128 -238 0
-129 -239 0
-126 -291 0
-127 -292 0
-128 -293 0
-129 -294 0
-126 -346 0
-127 -347 0
-128 -348 0
-129 -349 0
-126 -137 0
-127 -139 0
-128 -141 0
-129 -143 0
-131 -136 0
-132 -138 0
-133 -140 0
-134 -142 0
-131 -186 0
-132 -187 0
-133 -188 0
-134 -189 0
-131 -241 0
-132 -242 0
-133 -243 0
-134 -244 0
-131 -296 0
-132 -297 0
-133 -298 0
-134 -299 0
-131 -351 0
-132 -352 0
-133 -353 0
-134 -354 0
-131 -137 0
-132 -139 0
-133 -141 0
-134 -143 0
-136 -191 0
-138 -193 0
-140 -195 0
-142 -197 0
-136 -246 0
-138 -248 0
-140 -250 0
-142 -252 0
-136 -301 0
-138 -303 0
-140 -305 0
-142 -307 0
-136 -356 0
-138 -358 0
-140 -360 0
-142 -362 0
-136 -137 0
-138 -139 0
-140 -141 0
-142 -143 0
-146 -151 0
-147 -152 0
-148 -153 0
-149 -154 0
-146 -156 0
-147 -157 0
-148 -158 0
-149 -159 0
-146 -161 0
-147 -162 0
-148 -163 0
-149 -164 0
-146 -166 0
-147 -167 0
-148 -168 0
-149 -169 0
-146 -171 0
-147 -172 0
-148 -173 0
-149 -174 0
-146 -176 0
-147 -177 0
-148 -178 0
-149 -179 0
-146 -181 0
-147 -182 0
-148 -183 0
-149 -184 0
-146 -186 0
-147 -187 0
-148 -188 0
-149 -189 0
-146 -191 0
-147 -193 0
-148 -195 0
-149 -197 0
-146 -201 0
-147 -202 0
-148 -203 0
-149 -204 0
-146 -256 0
-147 -257 0
-148 -258 0
-149 -259 0
-146 -311 0
-147 -312 0
-148 -313 0
-149 -314 0
-146 -192 0
-147 -194 0
-148 -196 0
-149 -198 0
-151 -156 0
-152 -157 0
-153 -158 0
-154 -159 0
-151 -161 0
-152 -162 0
-153 -163 0
-154 -164 0
-151 -166 0
-152 -167 0
-153 -168 0
-154 -169 0
-151 -171 0
-152 -172 0
-153 -173 0
-154 -174 0
-151 -176 0
-152 -177 0
-153 -178 0
-154 -179 0
-151 -181 0
-152 -182 0
-153 -183 0
-154 -184 0
-151 -186 0
-152 -187 0
-153 -188 0
-154 -189 0
-151 -191 0
-152 -193 0
-153 -195 0
-154 -197 0
-151 -206 0
-152 -207 0
-153 -208 0
-154 -209 0
-151 -261 0
-152 -262 0
-153 -263 0
-154 -264 0
-151 -316 0
-152 -317 0
-153 -318 0
-154 -319 0
-151 -192 0
-152 -194 0
-153 -196 0
-154 -198 0
-156 -161 0
-157 -162 0
-158 -163 0
-159 -164 0
-156 -166 0
-157 -167 0
-158 -168 0
-159 -169 0
-156 -171 0
-157 -172 0
-158 -173 0
-159 -174 0
-156 -176 0
-157 -177 0
-158 -178 0
-159 -179 0
-156 -181 0
-157 -182 0
-158 -183 0
-159 -184 0
-156 -186 0
-157 -187 0
-158 -188 0
-159 -189 0
-156 -191 0
-157 -193 0
-158 -195 0
-159 -197 0
-156 -211 0
-157 -212 0
-158 -213 0
-159 -214 0
-156 -266 0
-157 -267 0
-158 -268 0
-159 -269 0
-156 -321 0
-157 -322 0
-158 -323 0
-159 -324 0
-156 -192 0
-157 -194 0
-158 -196 0
-159 -198 0
-161 -166 0
-162 -167 0
-163 -168 0
-164 -169 0
-161 -171 0
-162 -172 0
-163 -173 0
-164 -174 0
-161 -176 0
-162 -177 0
-163 -178 0
-164 -179 0
-161 -181 0
-162 -182 0
-163 -183 0
-164 -184 0
-161 -186 0
-162 -187 0
-163 -188 0
-164 -189 0
-161 -191 0
-162 -193 0
-163 -195 0
-164 -197 0
-161 -216 0
-162 -217 0
-163 -218 0
-164 -219 0
-161 -271 0
-162 -272 0
-163 -273 0
-164 -274 0
-161 -326 0
-162 -327 0
-163 -328 0
-164 -329 0
-161 -192 0
-162 -194 0
-163 -196 0
-164 -198 0
-166 -171 0
-167 -172 0
-168 -173 0
-169 -174 0
-166 -176 0
-167 -177 0
-168 -178 0
-169 -179 0
-166 -181 0
-167 -182 0
-168 -183 0
-169 -184 0
-166 -186 0
-167 -187 0
-168 -188 0
-169 -189 0
-166 -191 0
-167 -193 0
-168 -195 0
-169 -197 0
-166 -221 0
-167 -222 0
-168 -223 0
-169 -224 0
-166 -276 0
-167 -277 0
-168 -278 0
-169 -279 0
-166 -331 0
-167 -332 0
-168 -333 0
-169 -334 0
-166 -192 0
-167 -194 0
-168 -196 0
-169 -198 0
-171 -176 0
-172 -177 0
-173 -178 0
-174 -179 0
-171 -181 0
-172 -182 0
-173 -183 0
-174 -184 0
-171 -186 0
-172 -187 0
-173 -188 0
-174 -189 0
-171 -191 0
-172 -193 0
-173 -195 0
-174 -197 0
-171 -226 0
-172 -227 0
-173 -228 0
-174 -229 0
-171 -281 0
-172 -282 0
-173 -283 0
-174 -284 0
-171 -336 0
-172 -337 0
-173 -338 0
-174 -339 0
-171 -192 0
-172 -194 0
-173 -196 0
-174 -198 0
-176 -181 0
-177 -182 0
-178 -183 0
-179 -184 0
-176 -186 0
-177 -187 0
-178 -188 0
-179 -189 0
-176 -191 0
-177 -193 0
-178 -195 0
-179 -197 0
-176 -231 0
-177 -232 0
-178 -233 0
-179 -234 0
-176 -286 0
-177 -287 0
-178 -288 0
-179 -289 0
-176 -341 0
-177 -342 0
-178 -343 0
-179 -344 0
-176 -192 0
-177 -194 0
-178 -196 0
-179 -198 0
-181 -186 0
-182 -187 0
-183 -188 0
-184 -189 0
-181 -191 0
-182 -193 0
-183 -195 0
-184 -197 0
-181 -236 0
-182 -237 0
-183 -238 0
-184 -239 0
-181 -291 0
-182 -292 0
-183 -293 0
-184 -294 0
-181 -346 0
-182 -347 0
-183 -348 0
-184 -349 0
-181 -192 0
-182 -194 0
-183 -196 0
-184 -198 0
-186 -191 0
-187 -193 0
-188 -195 0
-189 -197 0
-186 -241 0
-187 -242 0
-188 -243 0
-189 -244 0
-186 -296 0
-187 -297 0
-188 -298 0
-189 -299 0
-186 -351 0
-187 -352 0
-188 -353 0
-189 -354 0
-186 -192 0
-187 -194 0
-188 -196 0
-189 -198 0
-191 -246 0
-193 -248 0
-195 -250 0
-197 -252 0
-191 -301 0
-193 -303 0
-195 -305 0
-197 -307 0
-191 -356 0
-193 -358 0
-195 -360 0
-197 -362 0
-191 -192 0
-193 -194 0
-195 -196 0
-197 -198 0
-201 -206 0
-202 -207 0
-203 -208 0
-204 -209 0
-201 -211 0
-202 -212 0
-203 -213 0
-204 -214 0
-201 -216 0
-202 -217 0
-203 -218 0
-204 -219 0
-201 -221 0
-202 -222 0
-203 -223 0
-204 -224 0
-201 -226 0
-202 -227 0
-203 -228 0
-204 -229 0
-201 -231 0
-202 -232 0
-203 -233 0
-204 -234 0
-201 -236 0
-202 -237 0
-203 -238 0
-204 -239 0
-201 -241 0
-202 -242 0
-203 -243 0
-204 -244 0
-201 -246 0
-202 -248 0
-203 -250 0
-204 -252 0
-201 -256 0
-202 -257 0
-203 -258 0
-204 -259 0
-201 -311 0
-202 -312 0
-203 -313 0
-204 -314 0
-201 -247 0
-202 -249 0
-203 -251 0
-204 -253 0
-206 -211 0
-207 -212 0
-208 -213 0
-209 -214 0
-206 -216 0
-207 -217 0
-208 -218 0
-209 -219 0
-206 -221 0
-207 -222 0
-208 -223 0
-209 -224 0
-206 -226 0
-207 -227 0
-208 -228 0
-209 -229 0
-206 -231 0
-207 -232 0
-208 -233 0
-209 -234 0
-206 -236 0
-207 -237 0
-208 -238 0
-209 -239 0
-206 -241 0
-207 -242 0
-208 -243 0
-209 -244 0
-206 -246 0
-207 -248 0
-208 -250 0
-209 -252 0
-206 -261 0
-207 -262 0
-208 -263 0
-209 -264 0
-206 -316 0
-207 -317 0
-208 -318 0
-209 -319 0
-206 -247 0
-207 -249 0
-208 -251 0
-209 -253 0
-211 -216 0
-212 -217 0
-213 -218 0
-214 -219 0
-211 -221 0
-212 -222 0
-213 -223 0
-214 -224 0
-211 -226 0
-212 -227 0
-213 -228 0
-214 -229 0
-211 -231 0
-212 -232 0
-213 -233 0
-214 -234 0
-211 -236 0
-212 -237 0
-213 -238 0
-214 -239 0
-211 -241 0
-212 -242 0
-213 -243 0
-214 -244 0
-211 -246 0
-212 -248 0
-213 -250 0
-214 -252 0
-211 -266 0
-212 -267 0
-213 -268 0
-214 -269 0
-211 -321 0
-212 -322 0
-213 -323 0
-214 -324 0
-211 -247 0
-212 -249 0
-213 -251 0
-214 -253 0
-216 -221 0
-217 -222 0
-218 -223 0
-219 -224 0
-216 -226 0
-217 -227 0
-218 -228 0
-219 -229 0
-216 -231 0
-217 -232 0
-218 -233 0
-219 -234 0
-216 -236 0
-217 -237 0
-218 -238 0
-219 -239 0
-216 -241 0
-217 -242 0
-218 -243 0
-219 -244 0
-216 -246 0
-217 -248 0
-218 -250 0
-219 -252 0
-216 -271 0
-217 -272 0
-218 -273 0
-219 -274 0
-216 -326 0
-217 -327 0
-218 -328 0
-219 -329 0
-216 -247 0
-217 -249 0
-218 -251 0
-219 -253 0
-221 -226 0
-222 -227 0
-223 -228 0
-224 -229 0
-221 -231 0
-222 -232 0
-223 -233 0
-224 -234 0
-221 -236 0
-222 -237 0
-223 -238 0
-224 -239 0
-221 -241 0
-222 -242 0
-223 -243 0
-224 -244 0
-221 -246 0
-222 -248 0
-223 -250 0
-224 -252 0
-221 -276 0
-222 -277 0
-223 -278 0
-224 -279 0
-221 -331 0
-222 -332 0
-223 -333 0
-224 -334 0
-221 -247 0
-222 -249 0
-223 -251 0
-224 -253 0
-226 -231 0
-227 -232 0
-228 -233 0
-229 -234 0
-226 -236 0
-227 -237 0
-228 -238 0
-229 -239 0
-226 -241 0
-227 -242 0
-228 -243 0
-229 -244 0
-226 -246 0
-227 -248 0
-228 -250 0
-229 -252 0
-226 -281 0
-227 -282 0
-228 -283 0
-229 -284 0
-226 -336 0
-227 -337 0
-228 -338 0
-229 -339 0
-226 -247 0
-227 -249 0
-228 -251 0
-229 -253 0
-231 -236 0
-232 -237 0
-233 -238 0
-234 -239 0
-231 -241 0
-232 -242 0
-233 -243 0
-234 -244 0
-231 -246 0
-232 -248 0
-233 -250 0
-234 -252 0
-231 -286 0
-232 -287 0
-233 -288 0
-234 -289 0
-231 -341 0
-232 -342 0
-233 -343 0
-234 -344 0
-231 -247 0
-232 -249 0
-233 -251 0
-234 -253 0
-236 -241 0
-237 -242 0
-238 -243 0
-239 -244 0
-236 -246 0
-237 -248 0
-238 -250 0
-239 -252 0
-236 -291 0
-237 -292 0
-238 -293 0
-239 -294 0
-236 -346 0
-237 -347 0
-238 -348 0
-239 -349 0
-236 -247 0
-237 -249 0
-238 -251 0
-239 -253 0
-241 -246 0
-242 -248 0
-243 -250 0
-244 -252 0
-241 -296 0
-242 -297 0
-243 -298 0
-244 -299 0
-241 -351 0
-242 -352 0
-243 -353 0
-244 -354 0
-241 -247 0
-242 -249 0
-243 -251 0
-244 -253 0
-246 -301 0
-248 -303 0
-250 -305 0
-252 -307 0
-246 -356 0
-248 -358 0
-250 -360 0
-252 -362 0
-246 -247 0
-248 -249 0
-250 -251 0
-252 -253 0
-256 -261 0
-257 -262 0
-258 -263 0
-259 -264 0
-256 -266 0
-257 -267 0
-258 -268 0
-259 -269 0
-256 -271 0
-257 -272 0
-258 -273 0
-259 -274 0
-256 -276 0
-257 -277 0
-258 -278 0
-259 -279 0
-256 -281 0
-257 -282 0
-258 -283 0
-259 -284 0
-256 -286 0
-257 -287 0
-258 -288 0
-259 -289 0
-256 -291 0
-257 -292 0
-258 -293 0
-259 -294 0
-256 -296 0
-257 -297 0
-258 -298 0
-259 -299 0
-256 -301 0
-257 -303 0
-258 -305 0
-259 -307 0
-256 -311 0
-257 -312 0
-258 -313 0
-259 -314 0
-256 -302 0
-257 -304 0
-258 -306 0
-259 -308 0
-261 -266 0
-262 -267 0
-263 -268 0
-264 -269 0
-261 -271 0
-262 -272 0
-263 -273 0
-264 -274 0
-261 -276 0
-262 -277 0
-263 -278 0
-264 -279 0
-261 -281 0
-262 -282 0
-263 -283 0
-264 -284 0
-261 -286 0
-262 -287 0
-263 -288 0
-264 -289 0
-261 -291 0
-262 -292 0
-263 -293 0
-264 -294 0
-261 -296 0
-262 -297 0
-263 -298 0
-264 -299 0
-261 -301 0
-262 -303 0
-263 -305 0
-264 -307 0
-261 -316 0
-262 -317 0
-263 -318 0
-264 -319 0
-261 -302 0
-262 -304 0
-263 -306 0
-264 -308 0
-266 -271 0
-267 -272 0
-268 -273 0
-269 -274 0
-266 -276 0
-267 -277 0
-268 -278 0
-269 -279 0
-266 -281 0
-267 -282 0
-268 -283 0
-269 -284 0
-266 -286 0
-267 -287 0
-268 -288 0
-269 -289 0
-266 -291 0
-267 -292 0
-268 -293 0
-269 -294 0
-266 -296 0
-267 -297 0
-268 -298 0
-269 -299 0
-266 -301 0
-267 -303 0
-268 -305 0
-269 -307 0
-266 -321 0
-267 -322 0
-268 -323 0
-269 -324 0
-266 -302 0
-267 -304 0
-268 -306 0
-269 -308 0
-271 -276 0
-272 -277 0
-273 -278 0
-274 -279 0
-271 -281 0
-272 -282 0
-273 -283 0
-274 -284 0
-271 -286 0
-272 -287 0
-273 -288 0
-274 -289 0
-271 -291 0
-272 -292 0
-273 -293 0
-274 -294 0
-271 -296 0
-272 -297 0
-273 -298 0
-274 -299 0
-271 -301 0
-272 -303 0
-273 -305 0
-274 -307 0
-271 -326 0
-272 -327 0
-273 -328 0
-274 -329 0
-271 -302 0
-272 -304 0
-273 -306 0
-274 -308 0
-276 -281 0
-277 -282 0
-278 -283 0
-279 -284 0
-276 -286 0
-277 -287 0
-278 -288 0
-279 -289 0
-276 -291 0
-277 -292 0
-278 -293 0
-279 -294 0
-276 -296 0
-277 -297 0
-278 -298 0
-279 -299 0
-276 -301 0
-277 -303 0
-278 -305 0
-279 -307 0
-276 -331 0
-277 -332 0
-278 -333 0
-279 -334 0
-276 -302 0
-277 -304 0
-278 -306 0
-279 -308 0
-281 -286 0
-282 -287 0
-283 -288 0
-284 -289 0
-281 -291 0
-282 -292 0
-283 -293 0
-284 -294 0
-281 -296 0
-282 -297 0
-283 -298 0
-284 -299 0
-281 -301 0
-282 -303 0
-283 -305 0
-284 -307 0
-281 -336 0
-282 -337 0
-283 -338 0
-284 -339 0
-281 -302 0
-282 -304 0
-283 -306 0
-284 -308 0
-286 -291 0
-287 -292 0
-288 -293 0
-289 -294 0
-286 -296 0
-287 -297 0
-288 -298 0
-289 -299 0
-286 -301 0
-287 -303 0
-288 -305 0
-289 -307 0
-286 -341 0
-287 -342 0
-288 -343 0
-289 -344 0
-286 -302 0
-287 -304 0
-288 -306 0
-289 -308 0
-291 -296 0
-292 -297 0
-293 -298 0
-294 -299 0
-291 -301 0
-292 -303 0
-293 -305 0
-294 -307 0
-291 -346 0
-292 -347 0
-293 -348 0
-294 -349 0
-291 -302 0
-292 -304 0
-293 -306 0
-294 -308 0
-296 -301 0
-297 -303 0
-298 -305 0
-299 -307 0
-296 -351 0
-297 -352 0
-298 -353 0
-299 -354 0
-296 -302 0
-297 -304 0
-298 -306 0
-299 -308 0
-301 -356 0
-303 -358 0
-305 -360 0
-307 -362 0
-301 -302 0
-303 -304 0
-305 -306 0
-307 -308 0
-311 -316 0
-312 -317 0
-313 -318 0
-314 -319 0
-311 -321 0
-312 -322 0
-313 -323 0
-314 -324 0
-311 -326 0
-312 -327 0
-313 -328 0
-314 -329 0
-311 -331 0
-312 -332 0
-313 -333 0
-314 -334 0
-311 -336 0
-312 -337 0
-313 -338 0
-314 -339 0
-311 -341 0
-312 -342 0
-313 -343 0
-314 -344 0
-311 -346 0
-312 -347 0
-313 -348 0
-314 -349 0
-311 -351 0
-312 -352 0
-313 -353 0
-314 -354 0
-311 -356 0
-312 -358 0
-313 -360 0
-314 -362 0
-311 -357 0
-312 -359 0
-313 -361 0
-314 -363 0
-316 -321 0
-317 -322 0
-318 -323 0
-319 -324 0
-316 -326 0
-317 -327 0
-318 -328 0
-319 -329 0
-316 -331 0
-317 -332 0
-318 -333 0
-319 -334 0
-316 -336 0
-317 -337 0
-318 -338 0
-319 -339 0
-316 -341 0
-317 -342 0
-318 -343 0
-319 -344 0
-316 -346 0
-317 -347 0
-318 -348 0
-319 -349 0
-316 -351 0
-317 -352 0
-318 -353 0
-319 -354 0
-316 -356 0
-317 -358 0
-318 -360 0
-319 -362 0
-316 -357 0
-317 -359 0
-318 -361 0
-319 -363 0
-321 -326 0
-322 -327 0
-323 -328 0
-324 -329 0
-321 -331 0
-322 -332 0
-323 -333 0
-324 -334 0
-321 -336 0
-322 -337 0
-323 -338 0
-324 -339 0
-321 -341 0
-322 -342 0
-323 -343 0
-324 -344 0
-321 -346 0
-322 -347 0
-323 -348 0
-324 -349 0
-321 -351 0
-322 -352 0
-323 -353 0
-324 -354 0
-321 -356 0
-322 -358 0
-323 -360 0
-324 -362 0
-321 -357 0
-322 -359 0
-323 -361 0
-324 -363 0
-326 -331 0
-327 -332 0
-328 -333 0
-329 -334 0
-326 -336 0
-327 -337 0
-328 -338 0
-329 -339 0
-326 -341 0
-327 -342 0
-328 -343 0
-329 -344 0
-326 -346 0
-327 -347 0
-328 -348 0
-329 -349 0
-326 -351 0
-327 -352 0
-328 -353 0
-329 -354 0
-326 -356 0
-327 -358 0
-328 -360 0
-329 -362 0
-326 -357 0
-327 -359 0
-328 -361 0
-329 -363 0
-331 -336 0
-332 -337 0
-333 -338 0
-334 -339 0
-331 -341 0
-332 -342 0
-333 -343 0
-334 -344 0
-331 -346 0
-332 -347 0
-333 -348 0
-334 -349 0
-331 -351 0
-332 -352 0
-333 -353 0
-334 -354 0
-331 -356 0
-332 -358 0
-333 -360 0
-334 -362 0
-331 -357 0
-332 -359 0
-333 -361 0
-334 -363 0
-336 -341 0
-337 -342 0
-338 -343 0
-339 -344 0
-336 -346 0
-337 -347 0
-338 -348 0
-339 -349 0
-336 -351 0
-337 -352 0
-338 -353 0
-339 -354 0
-336 -356 0
-337 -358 0
-338 -360 0
-339 -362 0
-336 -357 0
-337 -359 0
-338 -361 0
-339 -363 0
-341 -346 0
-342 -347 0
-343 -348 0
-344 -349 0
-341 -351 0
-342 -352 0
-343 -353 0
-344 -354 0
-341 -356 0
-342 -358 0
-343 -360 0
-344 -362 0
-341 -357 0
-342 -359 0
-343 -361 0
-344 -363 0
-346 -351 0
-347 -352 0
-348 -353 0
-349 -354 0
-346 -356 0
-347 -358 0
-348 -360 0
-349 -362 0
-346 -357 0
-347 -359 0
-348 -361 0
-349 -363 0
-351 -356 0
-352 -358 0
-353 -360 0
-354 -362 0
-351 -357 0
-352 -359 0
-353 -361 0
-354 -363 0
-356 -357 0
-358 -359 0
-360 -361 0
-362 -363 0
-366 0
-367 0
-368 0
-369 0
-370 0
-371 0
-372 0
-373 0
-374 0
-375 0
